interpolants/tmp_halfSquare._msat__msat.txt
unsat
(let ((.def_34 (= pc_1 0))) (let ((.def_557 (* (- 1) i_0))) (let ((.def_563 (<= 2 (+ max_0 .def_557)))) (let ((.def_569 (<= 2 (+ max_1 (* (- 1) i_1))))) (let ((.def_575 (and .def_569 (<= 1 (+ x_1 (* (- 1) i_1)))))) (let ((.def_580 (<= 1 (+ x_0 .def_557)))) (let ((.def_582 (not (= pc_0 1)))) (let ((.def_608 (and (<= 0 (+ (* 2 i_0) (+ y_0 (+ (* (- 2) i_1) (* (- 1) y_1))))) (<= (+ (* 2 i_0) (+ y_0 (+ (* (- 2) i_1) (* (- 1) y_1)))) 0)))) (let ((.def_670 (and .def_34 .def_575))) (and .def_34 (and .def_563 (and .def_575 (and .def_580 (and .def_582 (and .def_563 (and .def_582 (and .def_563 (and .def_580 (and .def_670 (and .def_569 (and .def_582 (and .def_563 (and .def_582 (and .def_563 (and (<= 1 (+ max_0 (+ .def_557 (+ (* (- 1) x_1) i_1)))) (and .def_670 (and .def_569 (and .def_563 (and .def_580 (and .def_670 (and .def_582 (and .def_563 (and .def_582 (and (and .def_563 .def_582) (and (and .def_569 (and .def_34 (and .def_563 (and .def_575 (and .def_580 (and .def_569 (and .def_582 (and .def_569 (and .def_582 (and .def_563 (and (<= (+ x_0 (+ .def_557 (+ (* (- 1) max_1) i_1))) (- 1)) (and .def_563 .def_608)))))))))))) (and (and (and .def_563 .def_580) .def_608) .def_670))))))))))))))))))))))))))))))))))))
(let ((.def_703 (<= 2 (+ maxp_0 (* (- 1) ip_0))))) (let ((.def_708 (<= 1 (+ xp_0 (* (- 1) ip_0))))) (let ((.def_710 (not (= pcp_0 1)))) (let ((.def_711 (not (= pcp_1 1)))) (let ((.def_716 (<= 1 (+ maxp_1 (* (- 1) ip_1))))) (let ((.def_739 (and (<= (+ ip_1 (+ yp_1 (+ (* (- 2) ip_0) (* (- 1) yp_0)))) 1) (<= 1 (+ ip_1 (+ yp_1 (+ (* (- 2) ip_0) (* (- 1) yp_0)))))))) (and .def_703 (and .def_708 (and .def_710 (and .def_703 (and .def_710 (and .def_711 (and .def_710 (and .def_703 (and .def_708 (and .def_716 (and .def_710 (and .def_703 (and .def_710 (and .def_703 (and (<= (+ xp_1 (+ (* (- 1) ip_1) (+ (* (- 1) maxp_0) ip_0))) (- 2)) (and .def_716 (and .def_703 (and .def_708 (and .def_710 (and .def_703 (and .def_710 (and (and .def_703 .def_710) (and (and (and .def_703 .def_708) .def_739) (and .def_716 (and .def_703 (and .def_708 (and .def_716 (and .def_711 (and .def_710 (and .def_716 (and .def_710 (and .def_703 (and (<= 0 (+ maxp_1 (+ (* (- 1) ip_1) (+ (* (- 1) xp_0) ip_0)))) (and .def_703 .def_739))))))))))))))))))))))))))))))))))))))))
(let ((.def_820 (<= 2 (+ maxpp_0 (* (- 1) ipp_0))))) (let ((.def_825 (<= 1 (+ xpp_0 (* (- 1) ipp_0))))) (let ((.def_827 (not (= pcpp_0 1)))) (let ((.def_850 (and (<= (+ ipp_1 (+ ypp_1 (+ (* (- 2) ipp_0) (* (- 1) ypp_0)))) 1) (<= 1 (+ ipp_1 (+ ypp_1 (+ (* (- 2) ipp_0) (* (- 1) ypp_0)))))))) (let ((.def_856 (<= 1 (+ maxpp_1 (* (- 1) ipp_1))))) (and .def_820 (and .def_825 (and .def_827 (and .def_820 (and .def_827 (and .def_820 (and .def_825 (and .def_827 (and .def_820 (and .def_827 (and .def_820 (or (<= 3 (+ maxpp_0 (* (- 1) ipp_0))) (and .def_820 (and .def_825 (and .def_827 (and .def_820 (and .def_827 (and (and .def_820 .def_827) (and (and (and .def_820 .def_825) .def_850) (or (and .def_820 (and .def_825 (and .def_827 (and (= pcpp_1 1) (and .def_856 (and .def_827 (and .def_820 (and (<= 0 (+ maxpp_1 (+ (* (- 1) ipp_1) (+ (* (- 1) xpp_0) ipp_0)))) (and .def_820 .def_850))))))))) (and .def_856 (= 0 (+ ipp_1 (+ ypp_1 (* (- 1) ypp_1))))))))))))))))))))))))))))))
(let ((.def_932 (<= 2 (+ maxppp_0 (* (- 1) ippp_0))))) (let ((.def_937 (<= 1 (+ xppp_0 (* (- 1) ippp_0))))) (let ((.def_938 (not (= pcppp_0 1)))) (let ((.def_957 (and (<= (+ yppp_1 (+ (* (- 2) ippp_0) (* (- 1) yppp_0))) 1) (<= 1 (+ yppp_1 (+ (* (- 2) ippp_0) (* (- 1) yppp_0))))))) (and .def_932 (and .def_937 (and .def_938 (and .def_932 (and .def_938 (and .def_932 (and .def_937 (and .def_938 (and .def_932 (and .def_938 (and .def_932 (or (<= 3 (+ maxppp_0 (* (- 1) ippp_0))) (and .def_932 (and .def_937 (and .def_938 (and .def_932 (and .def_938 (and (and .def_932 .def_938) (or (and (and .def_932 .def_937) .def_957) (and .def_932 (and .def_937 (and .def_938 (and .def_932 (and (<= (- 1) (+ maxppp_1 (+ (* (- 1) ippp_1) (+ (* (- 1) xppp_0) ippp_0)))) (and .def_932 .def_957)))))))))))))))))))))))))))))
(let ((.def_1030 (<= 1 (+ maxpppp_0 (* (- 1) ipppp_0))))) (let ((.def_1031 (not (= pcpppp_0 1)))) (let ((.def_1046 (and (<= 0 (+ ipppp_0 (+ ypppp_0 (* (- 1) ypppp_1)))) (<= (+ ipppp_0 (+ ypppp_0 (* (- 1) ypppp_1))) 0)))) (and .def_1030 (and .def_1031 (and .def_1030 (and .def_1031 (and .def_1030 (or (<= 2 (+ maxpppp_0 (* (- 1) ipppp_0))) (and .def_1030 (and .def_1031 (and (and .def_1030 .def_1031) (or .def_1046 (and .def_1031 (and .def_1030 (and (<= (+ xpppp_0 (+ (* (- 1) ipppp_0) (+ (* (- 1) maxpppp_1) ipppp_1))) 0) (and .def_1030 .def_1046)))))))))))))))))
(let ((.def_363 (= pcppppp_0 1))) (let ((.def_1094 (<= 1 (+ maxppppp_0 (* (- 1) ippppp_0))))) (let ((.def_1095 (and .def_363 .def_1094))) (let ((.def_1113 (and (<= 0 (+ ippppp_0 (+ yppppp_0 (* (- 1) yppppp_1)))) (<= (+ ippppp_0 (+ yppppp_0 (* (- 1) yppppp_1))) 0)))) (or (and (not .def_363) (<= ippppp_0 xppppp_0)) (and .def_363 (and .def_1095 (or (<= 2 (+ maxppppp_0 (* (- 1) ippppp_0))) (and (or .def_1095 (and .def_1094 (= 0 (+ ippppp_0 (+ yppppp_0 (* (- 1) yppppp_0)))))) (not (and (and (not (<= 1 (+ maxppppp_1 (* (- 1) ippppp_1)))) (not (and .def_363 (and .def_1094 .def_1113)))) (not .def_1113))))))))))))
(not (and (and (and (not (and (<= ypppppp_0 ypppppp_1) (<= ypppppp_1 ypppppp_0))) (not (<= 1 (+ maxpppppp_1 (* (- 1) ipppppp_1))))) (not (<= 1 (+ maxpppppp_0 (* (- 1) ipppppp_0))))) (and (= pcpppppp_0 1) (not (<= ipppppp_0 xpppppp_0)))))
